p cnf 488 1192
c weights 1.0 1.0 2.718281828459045 0.36787944117144233 2.718281828459045 0.36787944117144233 2.718281828459045 0.36787944117144233 2.718281828459045 0.36787944117144233 1.0 1.0 2.718281828459045 0.36787944117144233 2.718281828459045 0.36787944117144233 2.718281828459045 0.36787944117144233 1.0 1.0 2.718281828459045 0.36787944117144233 2.718281828459045 0.36787944117144233 2.718281828459045 0.36787944117144233 1.0 1.0 2.718281828459045 0.36787944117144233 2.718281828459045 0.36787944117144233 2.718281828459045 0.36787944117144233 1.0 1.0 2.718281828459045 0.36787944117144233 2.718281828459045 0.36787944117144233 2.718281828459045 0.36787944117144233 2.718281828459045 0.36787944117144233 2.718281828459045 0.36787944117144233 2.718281828459045 0.36787944117144233 1.0 1.0 2.718281828459045 0.36787944117144233 2.718281828459045 0.36787944117144233 1.0 1.0 2.718281828459045 0.36787944117144233 2.718281828459045 0.36787944117144233 1.0 1.0 2.718281828459045 0.36787944117144233 2.718281828459045 0.36787944117144233 1.0 1.0 2.718281828459045 0.36787944117144233 2.718281828459045 0.36787944117144233 2.718281828459045 0.36787944117144233 2.718281828459045 0.36787944117144233 1.0 1.0 2.718281828459045 0.36787944117144233 2.718281828459045 0.36787944117144233 1.0 1.0 2.718281828459045 0.36787944117144233 2.718281828459045 0.36787944117144233 2.718281828459045 0.36787944117144233 2.718281828459045 0.36787944117144233 1.0 1.0 2.718281828459045 0.36787944117144233 2.718281828459045 0.36787944117144233 2.718281828459045 0.36787944117144233 1.0 1.0 2.718281828459045 0.36787944117144233 2.718281828459045 0.36787944117144233 2.718281828459045 0.36787944117144233 2.718281828459045 0.36787944117144233 1.0 1.0 2.718281828459045 0.36787944117144233 2.718281828459045 0.36787944117144233 2.718281828459045 0.36787944117144233 2.718281828459045 0.36787944117144233 1.0 1.0 2.718281828459045 0.36787944117144233 1.0 1.0 2.718281828459045 0.36787944117144233 1.0 1.0 2.718281828459045 0.36787944117144233 2.718281828459045 0.36787944117144233 2.718281828459045 0.36787944117144233 2.718281828459045 0.36787944117144233 2.718281828459045 0.36787944117144233 1.0 1.0 2.718281828459045 0.36787944117144233 2.718281828459045 0.36787944117144233 2.718281828459045 0.36787944117144233 2.718281828459045 0.36787944117144233 1.0 1.0 2.718281828459045 0.36787944117144233 2.718281828459045 0.36787944117144233 1.0 1.0 1.0 1.0 2.718281828459045 0.36787944117144233 2.718281828459045 0.36787944117144233 2.718281828459045 0.36787944117144233 1.0 1.0 2.718281828459045 0.36787944117144233 2.718281828459045 0.36787944117144233 2.718281828459045 0.36787944117144233 2.718281828459045 0.36787944117144233 1.0 1.0 2.718281828459045 0.36787944117144233 2.718281828459045 0.36787944117144233 2.718281828459045 0.36787944117144233 1.0 1.0 2.718281828459045 0.36787944117144233 2.718281828459045 0.36787944117144233 1.0 1.0 2.718281828459045 0.36787944117144233 2.718281828459045 0.36787944117144233 2.718281828459045 0.36787944117144233 1.0 1.0 2.718281828459045 0.36787944117144233 2.718281828459045 0.36787944117144233 2.718281828459045 0.36787944117144233 2.718281828459045 0.36787944117144233 1.0 1.0 2.718281828459045 0.36787944117144233 2.718281828459045 0.36787944117144233 2.718281828459045 0.36787944117144233 2.718281828459045 0.36787944117144233 2.718281828459045 0.36787944117144233 2.718281828459045 0.36787944117144233 1.0 1.0 2.718281828459045 0.36787944117144233 1.0 1.0 2.718281828459045 0.36787944117144233 1.0 1.0 2.718281828459045 0.36787944117144233 1.0 1.0 2.718281828459045 0.36787944117144233 2.718281828459045 0.36787944117144233 1.0 1.0 2.718281828459045 0.36787944117144233 2.718281828459045 0.36787944117144233 1.0 1.0 2.718281828459045 0.36787944117144233 2.718281828459045 0.36787944117144233 2.718281828459045 0.36787944117144233 1.0 1.0 2.718281828459045 0.36787944117144233 2.718281828459045 0.36787944117144233 2.718281828459045 0.36787944117144233 2.718281828459045 0.36787944117144233 1.0 1.0 2.718281828459045 0.36787944117144233 1.0 1.0 2.718281828459045 0.36787944117144233 2.718281828459045 0.36787944117144233 1.0 1.0 2.718281828459045 0.36787944117144233 2.718281828459045 0.36787944117144233 1.0 1.0 2.718281828459045 0.36787944117144233 2.718281828459045 0.36787944117144233 2.718281828459045 0.36787944117144233 2.718281828459045 0.36787944117144233 2.718281828459045 0.36787944117144233 1.0 1.0 2.718281828459045 0.36787944117144233 2.718281828459045 0.36787944117144233 2.718281828459045 0.36787944117144233 1.0 1.0 2.718281828459045 0.36787944117144233 2.718281828459045 0.36787944117144233 2.718281828459045 0.36787944117144233 1.0 1.0 2.718281828459045 0.36787944117144233 2.718281828459045 0.36787944117144233 2.718281828459045 0.36787944117144233 1.0 1.0 2.718281828459045 0.36787944117144233 2.718281828459045 0.36787944117144233 2.718281828459045 0.36787944117144233 1.0 1.0 2.718281828459045 0.36787944117144233 2.718281828459045 0.36787944117144233 2.718281828459045 0.36787944117144233 2.718281828459045 0.36787944117144233 1.0 1.0 2.718281828459045 0.36787944117144233 2.718281828459045 0.36787944117144233 2.718281828459045 0.36787944117144233 1.0 1.0 2.718281828459045 0.36787944117144233 2.718281828459045 0.36787944117144233 2.718281828459045 0.36787944117144233 1.0 1.0 2.718281828459045 0.36787944117144233 2.718281828459045 0.36787944117144233 1.0 1.0 2.718281828459045 0.36787944117144233 2.718281828459045 0.36787944117144233 1.0 1.0 2.718281828459045 0.36787944117144233 2.718281828459045 0.36787944117144233 1.0 1.0 2.718281828459045 0.36787944117144233 1.0 1.0 2.718281828459045 0.36787944117144233 2.718281828459045 0.36787944117144233 2.718281828459045 0.36787944117144233 1.0 1.0 1.0 1.0 2.718281828459045 0.36787944117144233 2.718281828459045 0.36787944117144233 2.718281828459045 0.36787944117144233 1.0 1.0 2.718281828459045 0.36787944117144233 2.718281828459045 0.36787944117144233 2.718281828459045 0.36787944117144233 2.718281828459045 0.36787944117144233 1.0 1.0 2.718281828459045 0.36787944117144233 2.718281828459045 0.36787944117144233 2.718281828459045 0.36787944117144233 2.718281828459045 0.36787944117144233 1.0 1.0 2.718281828459045 0.36787944117144233 2.718281828459045 0.36787944117144233 2.718281828459045 0.36787944117144233 1.0 1.0 2.718281828459045 0.36787944117144233 2.718281828459045 0.36787944117144233 2.718281828459045 0.36787944117144233 1.0 1.0 2.718281828459045 0.36787944117144233 2.718281828459045 0.36787944117144233 2.718281828459045 0.36787944117144233 1.0 1.0 1.0 1.0 2.718281828459045 0.36787944117144233 2.718281828459045 0.36787944117144233 1.0 1.0 2.718281828459045 0.36787944117144233 2.718281828459045 0.36787944117144233 2.718281828459045 0.36787944117144233 1.0 1.0 1.0 1.0 2.718281828459045 0.36787944117144233 1.0 1.0 2.718281828459045 0.36787944117144233 2.718281828459045 0.36787944117144233 1.0 1.0 2.718281828459045 0.36787944117144233 2.718281828459045 0.36787944117144233 2.718281828459045 0.36787944117144233 1.0 1.0 2.718281828459045 0.36787944117144233 2.718281828459045 0.36787944117144233 2.718281828459045 0.36787944117144233 1.0 1.0 2.718281828459045 0.36787944117144233 2.718281828459045 0.36787944117144233 2.718281828459045 0.36787944117144233 1.0 1.0 2.718281828459045 0.36787944117144233 2.718281828459045 0.36787944117144233 2.718281828459045 0.36787944117144233 1.0 1.0 1.0 1.0 2.718281828459045 0.36787944117144233 1.0 1.0 2.718281828459045 0.36787944117144233 1.0 1.0 2.718281828459045 0.36787944117144233 2.718281828459045 0.36787944117144233 1.0 1.0 2.718281828459045 0.36787944117144233 2.718281828459045 0.36787944117144233 1.0 1.0 2.718281828459045 0.36787944117144233 2.718281828459045 0.36787944117144233 2.718281828459045 0.36787944117144233 1.0 1.0 1.0 1.0 2.718281828459045 0.36787944117144233 2.718281828459045 0.36787944117144233 2.718281828459045 0.36787944117144233 2.718281828459045 0.36787944117144233 2.718281828459045 0.36787944117144233 1.0 1.0 2.718281828459045 0.36787944117144233 1.0 1.0 2.718281828459045 0.36787944117144233 1.0 1.0 2.718281828459045 0.36787944117144233 2.718281828459045 0.36787944117144233 1.0 1.0 2.718281828459045 0.36787944117144233 1.0 1.0 2.718281828459045 0.36787944117144233 2.718281828459045 0.36787944117144233 1.0 1.0 2.718281828459045 0.36787944117144233 2.718281828459045 0.36787944117144233 2.718281828459045 0.36787944117144233 1.0 1.0 2.718281828459045 0.36787944117144233 1.0 1.0 2.718281828459045 0.36787944117144233 2.718281828459045 0.36787944117144233 1.0 1.0 2.718281828459045 0.36787944117144233 1.0 1.0 2.718281828459045 0.36787944117144233 2.718281828459045 0.36787944117144233 1.0 1.0 2.718281828459045 0.36787944117144233 1.0 1.0 2.718281828459045 0.36787944117144233 1.0 1.0 2.718281828459045 0.36787944117144233 2.718281828459045 0.36787944117144233 2.718281828459045 0.36787944117144233 1.0 1.0 2.718281828459045 0.36787944117144233 2.718281828459045 0.36787944117144233 2.718281828459045 0.36787944117144233 1.0 1.0 1.0 1.0 2.718281828459045 0.36787944117144233 1.0 1.0 2.718281828459045 0.36787944117144233 1.0 1.0 2.718281828459045 0.36787944117144233 2.718281828459045 0.36787944117144233 1.0 1.0 2.718281828459045 0.36787944117144233 2.718281828459045 0.36787944117144233 2.718281828459045 0.36787944117144233 1.0 1.0 2.718281828459045 0.36787944117144233 2.718281828459045 0.36787944117144233 2.718281828459045 0.36787944117144233 1.0 1.0 2.718281828459045 0.36787944117144233 1.0 1.0 1.0 1.0 2.718281828459045 0.36787944117144233 1.0 1.0 2.718281828459045 0.36787944117144233 2.718281828459045 0.36787944117144233 1.0 1.0 2.718281828459045 0.36787944117144233 2.718281828459045 0.36787944117144233 2.718281828459045 0.36787944117144233 2.718281828459045 0.36787944117144233 1.0 1.0 1.0 1.0 1.0 1.0 2.718281828459045 0.36787944117144233 1.0 1.0 2.718281828459045 0.36787944117144233 1.0 1.0 2.718281828459045 0.36787944117144233 1.0 1.0 2.718281828459045 0.36787944117144233 2.718281828459045 0.36787944117144233 1.0 1.0 2.718281828459045 0.36787944117144233 2.718281828459045 0.36787944117144233 2.718281828459045 0.36787944117144233 1.0 1.0 2.718281828459045 0.36787944117144233 2.718281828459045 0.36787944117144233 2.718281828459045 0.36787944117144233 1.0 1.0 2.718281828459045 0.36787944117144233 1.0 1.0 2.718281828459045 0.36787944117144233 1.0 1.0 2.718281828459045 0.36787944117144233 1.0 1.0 2.718281828459045 0.36787944117144233 1.0 1.0 2.718281828459045 0.36787944117144233 1.0 1.0 2.718281828459045 0.36787944117144233 2.718281828459045 0.36787944117144233 1.0 1.0 2.718281828459045 0.36787944117144233 2.718281828459045 0.36787944117144233 1.0 1.0 2.718281828459045 0.36787944117144233 1.0 1.0 2.718281828459045 0.36787944117144233 1.0 1.0 1.0 1.0 1.0 1.0 2.718281828459045 0.36787944117144233 2.718281828459045 0.36787944117144233 2.718281828459045 0.36787944117144233 2.718281828459045 0.36787944117144233 2.718281828459045 0.36787944117144233 1.0 1.0 1.0 1.0 2.718281828459045 0.36787944117144233 1.0 1.0 2.718281828459045 0.36787944117144233 1.0 1.0 1.0 1.0 2.718281828459045 0.36787944117144233 2.718281828459045 0.36787944117144233 2.718281828459045 0.36787944117144233 1.0 1.0 2.718281828459045 0.36787944117144233 1.0 1.0 2.718281828459045 0.36787944117144233 1.0 1.0 2.718281828459045 0.36787944117144233 2.718281828459045 0.36787944117144233 1.0 1.0 2.718281828459045 0.36787944117144233 2.718281828459045 0.36787944117144233 2.718281828459045 0.36787944117144233 1.0 1.0 1.0 1.0 2.718281828459045 0.36787944117144233 1.0 1.0 2.718281828459045 0.36787944117144233 1.0 1.0 1.0 1.0 2.718281828459045 0.36787944117144233 1.0 1.0 2.718281828459045 0.36787944117144233 1.0 1.0 1.0 1.0 1.0 1.0 2.718281828459045 0.36787944117144233 1.0 1.0 1.0 1.0 1.0 1.0 1.0 1.0 1.0 1.0 1.0 1.0 1.0 1.0 1.0 1.0 1.0 1.0 2.718281828459045 0.36787944117144233 1.0 1.0 2.718281828459045 0.36787944117144233 2.718281828459045 0.36787944117144233 1.0 1.0 1.0 1.0 2.718281828459045 0.36787944117144233 2.718281828459045 0.36787944117144233 2.718281828459045 0.36787944117144233 1.0 1.0 2.718281828459045 0.36787944117144233 1.0 1.0 2.718281828459045 0.36787944117144233 1.0 1.0 2.718281828459045 0.36787944117144233 2.718281828459045 0.36787944117144233 1.0 1.0 2.718281828459045 0.36787944117144233 1.0 1.0 1.0 1.0 2.718281828459045 0.36787944117144233 1.0 1.0 1.0 1.0 2.718281828459045 0.36787944117144233 1.0 1.0 1.0 1.0 1.0 1.0 2.718281828459045 0.36787944117144233 1.0 1.0 1.0 1.0 1.0 1.0 1.0 1.0 2.718281828459045 0.36787944117144233 1.0 1.0 1.0 1.0 1.0 1.0 1.0 1.0 1.0 1.0 1.0 1.0 1.0 1.0 1.0 1.0 1.0 1.0 1.0 1.0 2.718281828459045 0.36787944117144233 1.0 1.0 1.0 1.0 1.0 1.0 2.718281828459045 0.36787944117144233 1.0 1.0 1.0 1.0 1.0 1.0 1.0 1.0 1.0 1.0 1.0 1.0 1.0 1.0 2.718281828459045 0.36787944117144233 1.0 1.0 1.0 1.0 1.0 1.0 1.0 1.0 1.0 1.0
2 1 124 0
2 -1 -124 0
-2 1 -124 0
-2 -1 124 0
3 1 372 0
3 -1 -372 0
-3 1 -372 0
-3 -1 372 0
4 1 419 0
4 -1 -419 0
-4 1 -419 0
-4 -1 419 0
5 1 473 0
5 -1 -473 0
-5 1 -473 0
-5 -1 473 0
7 6 168 0
7 -6 -168 0
-7 6 -168 0
-7 -6 168 0
8 6 176 0
8 -6 -176 0
-8 6 -176 0
-8 -6 176 0
9 6 461 0
9 -6 -461 0
-9 6 -461 0
-9 -6 461 0
11 10 42 0
11 -10 -42 0
-11 10 -42 0
-11 -10 42 0
12 10 179 0
12 -10 -179 0
-12 10 -179 0
-12 -10 179 0
13 10 476 0
13 -10 -476 0
-13 10 -476 0
-13 -10 476 0
15 14 272 0
15 -14 -272 0
-15 14 -272 0
-15 -14 272 0
16 14 293 0
16 -14 -293 0
-16 14 -293 0
-16 -14 293 0
17 14 345 0
17 -14 -345 0
-17 14 -345 0
-17 -14 345 0
19 18 80 0
19 -18 -80 0
-19 18 -80 0
-19 -18 80 0
20 18 222 0
20 -18 -222 0
-20 18 -222 0
-20 -18 222 0
21 18 236 0
21 -18 -236 0
-21 18 -236 0
-21 -18 236 0
22 18 326 0
22 -18 -326 0
-22 18 -326 0
-22 -18 326 0
23 18 352 0
23 -18 -352 0
-23 18 -352 0
-23 -18 352 0
24 18 417 0
24 -18 -417 0
-24 18 -417 0
-24 -18 417 0
26 25 185 0
26 -25 -185 0
-26 25 -185 0
-26 -25 185 0
27 25 219 0
27 -25 -219 0
-27 25 -219 0
-27 -25 219 0
29 28 227 0
29 -28 -227 0
-29 28 -227 0
-29 -28 227 0
30 28 478 0
30 -28 -478 0
-30 28 -478 0
-30 -28 478 0
32 31 470 0
32 -31 -470 0
-32 31 -470 0
-32 -31 470 0
33 31 474 0
33 -31 -474 0
-33 31 -474 0
-33 -31 474 0
35 34 105 0
35 -34 -105 0
-35 34 -105 0
-35 -34 105 0
36 34 179 0
36 -34 -179 0
-36 34 -179 0
-36 -34 179 0
37 34 415 0
37 -34 -415 0
-37 34 -415 0
-37 -34 415 0
38 34 416 0
38 -34 -416 0
-38 34 -416 0
-38 -34 416 0
40 39 277 0
40 -39 -277 0
-40 39 -277 0
-40 -39 277 0
41 39 452 0
41 -39 -452 0
-41 39 -452 0
-41 -39 452 0
43 42 151 0
43 -42 -151 0
-43 42 -151 0
-43 -42 151 0
44 42 232 0
44 -42 -232 0
-44 42 -232 0
-44 -42 232 0
45 42 286 0
45 -42 -286 0
-45 42 -286 0
-45 -42 286 0
46 42 291 0
46 -42 -291 0
-46 42 -291 0
-46 -42 291 0
48 47 159 0
48 -47 -159 0
-48 47 -159 0
-48 -47 159 0
49 47 308 0
49 -47 -308 0
-49 47 -308 0
-49 -47 308 0
50 47 390 0
50 -47 -390 0
-50 47 -390 0
-50 -47 390 0
52 51 93 0
52 -51 -93 0
-52 51 -93 0
-52 -51 93 0
53 51 182 0
53 -51 -182 0
-53 51 -182 0
-53 -51 182 0
54 51 206 0
54 -51 -206 0
-54 51 -206 0
-54 -51 206 0
55 51 309 0
55 -51 -309 0
-55 51 -309 0
-55 -51 309 0
57 56 138 0
57 -56 -138 0
-57 56 -138 0
-57 -56 138 0
58 56 416 0
58 -56 -416 0
-58 56 -416 0
-58 -56 416 0
59 56 419 0
59 -56 -419 0
-59 56 -419 0
-59 -56 419 0
60 56 472 0
60 -56 -472 0
-60 56 -472 0
-60 -56 472 0
62 61 124 0
62 -61 -124 0
-62 61 -124 0
-62 -61 124 0
64 63 452 0
64 -63 -452 0
-64 63 -452 0
-64 -63 452 0
66 65 182 0
66 -65 -182 0
-66 65 -182 0
-66 -65 182 0
67 65 236 0
67 -65 -236 0
-67 65 -236 0
-67 -65 236 0
68 65 390 0
68 -65 -390 0
-68 65 -390 0
-68 -65 390 0
69 65 415 0
69 -65 -415 0
-69 65 -415 0
-69 -65 415 0
70 65 420 0
70 -65 -420 0
-70 65 -420 0
-70 -65 420 0
72 71 163 0
72 -71 -163 0
-72 71 -163 0
-72 -71 163 0
73 71 253 0
73 -71 -253 0
-73 71 -253 0
-73 -71 253 0
74 71 390 0
74 -71 -390 0
-74 71 -390 0
-74 -71 390 0
75 71 426 0
75 -71 -426 0
-75 71 -426 0
-75 -71 426 0
77 76 282 0
77 -76 -282 0
-77 76 -282 0
-77 -76 282 0
78 76 366 0
78 -76 -366 0
-78 76 -366 0
-78 -76 366 0
81 80 291 0
81 -80 -291 0
-81 80 -291 0
-81 -80 291 0
82 80 345 0
82 -80 -345 0
-82 80 -345 0
-82 -80 345 0
83 80 394 0
83 -80 -394 0
-83 80 -394 0
-83 -80 394 0
85 84 141 0
85 -84 -141 0
-85 84 -141 0
-85 -84 141 0
86 84 345 0
86 -84 -345 0
-86 84 -345 0
-86 -84 345 0
87 84 364 0
87 -84 -364 0
-87 84 -364 0
-87 -84 364 0
88 84 478 0
88 -84 -478 0
-88 84 -478 0
-88 -84 478 0
90 89 210 0
90 -89 -210 0
-90 89 -210 0
-90 -89 210 0
91 89 298 0
91 -89 -298 0
-91 89 -298 0
-91 -89 298 0
92 89 476 0
92 -89 -476 0
-92 89 -476 0
-92 -89 476 0
94 93 256 0
94 -93 -256 0
-94 93 -256 0
-94 -93 256 0
95 93 444 0
95 -93 -444 0
-95 93 -444 0
-95 -93 444 0
97 96 128 0
97 -96 -128 0
-97 96 -128 0
-97 -96 128 0
98 96 329 0
98 -96 -329 0
-98 96 -329 0
-98 -96 329 0
99 96 474 0
99 -96 -474 0
-99 96 -474 0
-99 -96 474 0
101 100 264 0
101 -100 -264 0
-101 100 -264 0
-101 -100 264 0
102 100 358 0
102 -100 -358 0
-102 100 -358 0
-102 -100 358 0
103 100 423 0
103 -100 -423 0
-103 100 -423 0
-103 -100 423 0
104 100 470 0
104 -100 -470 0
-104 100 -470 0
-104 -100 470 0
106 105 138 0
106 -105 -138 0
-106 105 -138 0
-106 -105 138 0
107 105 343 0
107 -105 -343 0
-107 105 -343 0
-107 -105 343 0
108 105 348 0
108 -105 -348 0
-108 105 -348 0
-108 -105 348 0
109 105 352 0
109 -105 -352 0
-109 105 -352 0
-109 -105 352 0
110 105 410 0
110 -105 -410 0
-110 105 -410 0
-110 -105 410 0
111 105 462 0
111 -105 -462 0
-111 105 -462 0
-111 -105 462 0
113 112 456 0
113 -112 -456 0
-113 112 -456 0
-113 -112 456 0
115 114 214 0
115 -114 -214 0
-115 114 -214 0
-115 -114 214 0
117 116 437 0
117 -116 -437 0
-117 116 -437 0
-117 -116 437 0
119 118 341 0
119 -118 -341 0
-119 118 -341 0
-119 -118 341 0
120 118 446 0
120 -118 -446 0
-120 118 -446 0
-120 -118 446 0
122 121 253 0
122 -121 -253 0
-122 121 -253 0
-122 -121 253 0
123 121 308 0
123 -121 -308 0
-123 121 -308 0
-123 -121 308 0
125 124 135 0
125 -124 -135 0
-125 124 -135 0
-125 -124 135 0
126 124 300 0
126 -124 -300 0
-126 124 -300 0
-126 -124 300 0
127 124 458 0
127 -124 -458 0
-127 124 -458 0
-127 -124 458 0
129 128 227 0
129 -128 -227 0
-129 128 -227 0
-129 -128 227 0
130 128 248 0
130 -128 -248 0
-130 128 -248 0
-130 -128 248 0
131 128 411 0
131 -128 -411 0
-131 128 -411 0
-131 -128 411 0
132 128 478 0
132 -128 -478 0
-132 128 -478 0
-132 -128 478 0
134 133 232 0
134 -133 -232 0
-134 133 -232 0
-134 -133 232 0
136 135 362 0
136 -135 -362 0
-136 135 -362 0
-136 -135 362 0
137 135 468 0
137 -135 -468 0
-137 135 -468 0
-137 -135 468 0
139 138 168 0
139 -138 -168 0
-139 138 -168 0
-139 -138 168 0
140 138 481 0
140 -138 -481 0
-140 138 -481 0
-140 -138 481 0
142 141 210 0
142 -141 -210 0
-142 141 -210 0
-142 -141 210 0
143 141 263 0
143 -141 -263 0
-143 141 -263 0
-143 -141 263 0
144 141 401 0
144 -141 -401 0
-144 141 -401 0
-144 -141 401 0
145 141 463 0
145 -141 -463 0
-145 141 -463 0
-145 -141 463 0
146 141 480 0
146 -141 -480 0
-146 141 -480 0
-146 -141 480 0
148 147 441 0
148 -147 -441 0
-148 147 -441 0
-148 -147 441 0
149 147 461 0
149 -147 -461 0
-149 147 -461 0
-149 -147 461 0
150 147 466 0
150 -147 -466 0
-150 147 -466 0
-150 -147 466 0
152 151 308 0
152 -151 -308 0
-152 151 -308 0
-152 -151 308 0
153 151 450 0
153 -151 -450 0
-153 151 -450 0
-153 -151 450 0
154 151 482 0
154 -151 -482 0
-154 151 -482 0
-154 -151 482 0
156 155 339 0
156 -155 -339 0
-156 155 -339 0
-156 -155 339 0
157 155 384 0
157 -155 -384 0
-157 155 -384 0
-157 -155 384 0
158 155 476 0
158 -155 -476 0
-158 155 -476 0
-158 -155 476 0
160 159 339 0
160 -159 -339 0
-160 159 -339 0
-160 -159 339 0
161 159 415 0
161 -159 -415 0
-161 159 -415 0
-161 -159 415 0
162 159 465 0
162 -159 -465 0
-162 159 -465 0
-162 -159 465 0
164 163 191 0
164 -163 -191 0
-164 163 -191 0
-164 -163 191 0
165 163 206 0
165 -163 -206 0
-165 163 -206 0
-165 -163 206 0
166 163 274 0
166 -163 -274 0
-166 163 -274 0
-166 -163 274 0
167 163 348 0
167 -163 -348 0
-167 163 -348 0
-167 -163 348 0
169 168 244 0
169 -168 -244 0
-169 168 -244 0
-169 -168 244 0
170 168 311 0
170 -168 -311 0
-170 168 -311 0
-170 -168 311 0
171 168 420 0
171 -168 -420 0
-171 168 -420 0
-171 -168 420 0
173 172 364 0
173 -172 -364 0
-173 172 -364 0
-173 -172 364 0
174 172 411 0
174 -172 -411 0
-174 172 -411 0
-174 -172 411 0
175 172 437 0
175 -172 -437 0
-175 172 -437 0
-175 -172 437 0
177 176 219 0
177 -176 -219 0
-177 176 -219 0
-177 -176 219 0
178 176 390 0
178 -176 -390 0
-178 176 -390 0
-178 -176 390 0
180 179 364 0
180 -179 -364 0
-180 179 -364 0
-180 -179 364 0
181 179 385 0
181 -179 -385 0
-181 179 -385 0
-181 -179 385 0
183 182 253 0
183 -182 -253 0
-183 182 -253 0
-183 -182 253 0
184 182 472 0
184 -182 -472 0
-184 182 -472 0
-184 -182 472 0
186 185 406 0
186 -185 -406 0
-186 185 -406 0
-186 -185 406 0
188 187 343 0
188 -187 -343 0
-188 187 -343 0
-188 -187 343 0
189 187 405 0
189 -187 -405 0
-189 187 -405 0
-189 -187 405 0
190 187 433 0
190 -187 -433 0
-190 187 -433 0
-190 -187 433 0
193 192 343 0
193 -192 -343 0
-193 192 -343 0
-193 -192 343 0
194 192 441 0
194 -192 -441 0
-194 192 -441 0
-194 -192 441 0
195 192 485 0
195 -192 -485 0
-195 192 -485 0
-195 -192 485 0
197 196 201 0
197 -196 -201 0
-197 196 -201 0
-197 -196 201 0
198 196 219 0
198 -196 -219 0
-198 196 -219 0
-198 -196 219 0
199 196 277 0
199 -196 -277 0
-199 196 -277 0
-199 -196 277 0
200 196 456 0
200 -196 -456 0
-200 196 -456 0
-200 -196 456 0
202 201 263 0
202 -201 -263 0
-202 201 -263 0
-202 -201 263 0
203 201 376 0
203 -201 -376 0
-203 201 -376 0
-203 -201 376 0
204 201 398 0
204 -201 -398 0
-204 201 -398 0
-204 -201 398 0
205 201 476 0
205 -201 -476 0
-205 201 -476 0
-205 -201 476 0
207 206 348 0
207 -206 -348 0
-207 206 -348 0
-207 -206 348 0
208 206 478 0
208 -206 -478 0
-208 206 -478 0
-208 -206 478 0
209 206 482 0
209 -206 -482 0
-209 206 -482 0
-209 -206 482 0
211 210 286 0
211 -210 -286 0
-211 210 -286 0
-211 -210 286 0
212 210 421 0
212 -210 -421 0
-212 210 -421 0
-212 -210 421 0
213 210 488 0
213 -210 -488 0
-213 210 -488 0
-213 -210 488 0
215 214 248 0
215 -214 -248 0
-215 214 -248 0
-215 -214 248 0
216 214 362 0
216 -214 -362 0
-216 214 -362 0
-216 -214 362 0
217 214 413 0
217 -214 -413 0
-217 214 -413 0
-217 -214 413 0
220 219 441 0
220 -219 -441 0
-220 219 -441 0
-220 -219 441 0
221 219 477 0
221 -219 -477 0
-221 219 -477 0
-221 -219 477 0
223 222 311 0
223 -222 -311 0
-223 222 -311 0
-223 -222 311 0
224 222 447 0
224 -222 -447 0
-224 222 -447 0
-224 -222 447 0
225 222 473 0
225 -222 -473 0
-225 222 -473 0
-225 -222 473 0
228 227 457 0
228 -227 -457 0
-228 227 -457 0
-228 -227 457 0
230 229 236 0
230 -229 -236 0
-230 229 -236 0
-230 -229 236 0
231 229 405 0
231 -229 -405 0
-231 229 -405 0
-231 -229 405 0
233 232 288 0
233 -232 -288 0
-233 232 -288 0
-233 -232 288 0
234 232 417 0
234 -232 -417 0
-234 232 -417 0
-234 -232 417 0
235 232 424 0
235 -232 -424 0
-235 232 -424 0
-235 -232 424 0
237 236 437 0
237 -236 -437 0
-237 236 -437 0
-237 -236 437 0
238 236 454 0
238 -236 -454 0
-238 236 -454 0
-238 -236 454 0
239 236 474 0
239 -236 -474 0
-239 236 -474 0
-239 -236 474 0
241 240 293 0
241 -240 -293 0
-241 240 -293 0
-241 -240 293 0
242 240 387 0
242 -240 -387 0
-242 240 -387 0
-242 -240 387 0
243 240 396 0
243 -240 -396 0
-243 240 -396 0
-243 -240 396 0
245 244 263 0
245 -244 -263 0
-245 244 -263 0
-245 -244 263 0
246 244 309 0
246 -244 -309 0
-246 244 -309 0
-246 -244 309 0
247 244 482 0
247 -244 -482 0
-247 244 -482 0
-247 -244 482 0
250 249 488 0
250 -249 -488 0
-250 249 -488 0
-250 -249 488 0
252 251 427 0
252 -251 -427 0
-252 251 -427 0
-252 -251 427 0
254 253 279 0
254 -253 -279 0
-254 253 -279 0
-254 -253 279 0
255 253 433 0
255 -253 -433 0
-255 253 -433 0
-255 -253 433 0
257 256 304 0
257 -256 -304 0
-257 256 -304 0
-257 -256 304 0
258 256 473 0
258 -256 -473 0
-258 256 -473 0
-258 -256 473 0
260 259 288 0
260 -259 -288 0
-260 259 -288 0
-260 -259 288 0
261 259 316 0
261 -259 -316 0
-261 259 -316 0
-261 -259 316 0
262 259 339 0
262 -259 -339 0
-262 259 -339 0
-262 -259 339 0
265 264 313 0
265 -264 -313 0
-265 264 -313 0
-265 -264 313 0
266 264 364 0
266 -264 -364 0
-266 264 -364 0
-266 -264 364 0
267 264 468 0
267 -264 -468 0
-267 264 -468 0
-267 -264 468 0
268 264 481 0
268 -264 -481 0
-268 264 -481 0
-268 -264 481 0
269 264 487 0
269 -264 -487 0
-269 264 -487 0
-269 -264 487 0
271 270 320 0
271 -270 -320 0
-271 270 -320 0
-271 -270 320 0
273 272 378 0
273 -272 -378 0
-273 272 -378 0
-273 -272 378 0
275 274 327 0
275 -274 -327 0
-275 274 -327 0
-275 -274 327 0
276 274 485 0
276 -274 -485 0
-276 274 -485 0
-276 -274 485 0
278 277 487 0
278 -277 -487 0
-278 277 -487 0
-278 -277 487 0
280 279 337 0
280 -279 -337 0
-280 279 -337 0
-280 -279 337 0
281 279 439 0
281 -279 -439 0
-281 279 -439 0
-281 -279 439 0
283 282 326 0
283 -282 -326 0
-283 282 -326 0
-283 -282 326 0
284 282 396 0
284 -282 -396 0
-284 282 -396 0
-284 -282 396 0
285 282 429 0
285 -282 -429 0
-285 282 -429 0
-285 -282 429 0
287 286 447 0
287 -286 -447 0
-287 286 -447 0
-287 -286 447 0
289 288 419 0
289 -288 -419 0
-289 288 -419 0
-289 -288 419 0
290 288 485 0
290 -288 -485 0
-290 288 -485 0
-290 -288 485 0
292 291 420 0
292 -291 -420 0
-292 291 -420 0
-292 -291 420 0
294 293 387 0
294 -293 -387 0
-294 293 -387 0
-294 -293 387 0
295 293 421 0
295 -293 -421 0
-295 293 -421 0
-295 -293 421 0
297 296 389 0
297 -296 -389 0
-297 296 -389 0
-297 -296 389 0
299 298 482 0
299 -298 -482 0
-299 298 -482 0
-299 -298 482 0
301 300 358 0
301 -300 -358 0
-301 300 -358 0
-301 -300 358 0
302 300 369 0
302 -300 -369 0
-302 300 -369 0
-302 -300 369 0
303 300 423 0
303 -300 -423 0
-303 300 -423 0
-303 -300 423 0
305 304 356 0
305 -304 -356 0
-305 304 -356 0
-305 -304 356 0
306 304 405 0
306 -304 -405 0
-306 304 -405 0
-306 -304 405 0
307 304 465 0
307 -304 -465 0
-307 304 -465 0
-307 -304 465 0
310 309 484 0
310 -309 -484 0
-310 309 -484 0
-310 -309 484 0
312 311 389 0
312 -311 -389 0
-312 311 -389 0
-312 -311 389 0
314 313 408 0
314 -313 -408 0
-314 313 -408 0
-314 -313 408 0
315 313 484 0
315 -313 -484 0
-315 313 -484 0
-315 -313 484 0
317 316 372 0
317 -316 -372 0
-317 316 -372 0
-317 -316 372 0
318 316 416 0
318 -316 -416 0
-318 316 -416 0
-318 -316 416 0
319 316 469 0
319 -316 -469 0
-319 316 -469 0
-319 -316 469 0
321 320 352 0
321 -320 -352 0
-321 320 -352 0
-321 -320 352 0
322 320 416 0
322 -320 -416 0
-322 320 -416 0
-322 -320 416 0
323 320 481 0
323 -320 -481 0
-323 320 -481 0
-323 -320 481 0
325 324 332 0
325 -324 -332 0
-325 324 -332 0
-325 -324 332 0
328 327 467 0
328 -327 -467 0
-328 327 -467 0
-328 -327 467 0
330 329 466 0
330 -329 -466 0
-330 329 -466 0
-330 -329 466 0
331 329 481 0
331 -329 -481 0
-331 329 -481 0
-331 -329 481 0
333 332 356 0
333 -332 -356 0
-333 332 -356 0
-333 -332 356 0
334 332 398 0
334 -332 -398 0
-334 332 -398 0
-334 -332 398 0
335 332 410 0
335 -332 -410 0
-335 332 -410 0
-335 -332 410 0
336 332 419 0
336 -332 -419 0
-336 332 -419 0
-336 -332 419 0
340 339 463 0
340 -339 -463 0
-340 339 -463 0
-340 -339 463 0
342 341 467 0
342 -341 -467 0
-342 341 -467 0
-342 -341 467 0
344 343 453 0
344 -343 -453 0
-344 343 -453 0
-344 -343 453 0
346 345 377 0
346 -345 -377 0
-346 345 -377 0
-346 -345 377 0
347 345 408 0
347 -345 -408 0
-347 345 -408 0
-347 -345 408 0
349 348 360 0
349 -348 -360 0
-349 348 -360 0
-349 -348 360 0
350 348 408 0
350 -348 -408 0
-350 348 -408 0
-350 -348 408 0
351 348 429 0
351 -348 -429 0
-351 348 -429 0
-351 -348 429 0
353 352 408 0
353 -352 -408 0
-353 352 -408 0
-353 -352 408 0
354 352 423 0
354 -352 -423 0
-354 352 -423 0
-354 -352 423 0
355 352 476 0
355 -352 -476 0
-355 352 -476 0
-355 -352 476 0
357 356 378 0
357 -356 -378 0
-357 356 -378 0
-357 -356 378 0
359 358 433 0
359 -358 -433 0
-359 358 -433 0
-359 -358 433 0
361 360 384 0
361 -360 -384 0
-361 360 -384 0
-361 -360 384 0
363 362 372 0
363 -362 -372 0
-363 362 -372 0
-363 -362 372 0
365 364 446 0
365 -364 -446 0
-365 364 -446 0
-365 -364 446 0
367 366 424 0
367 -366 -424 0
-367 366 -424 0
-367 -366 424 0
368 366 482 0
368 -366 -482 0
-368 366 -482 0
-368 -366 482 0
370 369 408 0
370 -369 -408 0
-370 369 -408 0
-370 -369 408 0
371 369 459 0
371 -369 -459 0
-371 369 -459 0
-371 -369 459 0
373 372 398 0
373 -372 -398 0
-373 372 -398 0
-373 -372 398 0
375 374 449 0
375 -374 -449 0
-375 374 -449 0
-375 -374 449 0
379 378 396 0
379 -378 -396 0
-379 378 -396 0
-379 -378 396 0
380 378 398 0
380 -378 -398 0
-380 378 -398 0
-380 -378 398 0
381 378 427 0
381 -378 -427 0
-381 378 -427 0
-381 -378 427 0
382 378 464 0
382 -378 -464 0
-382 378 -464 0
-382 -378 464 0
383 378 467 0
383 -378 -467 0
-383 378 -467 0
-383 -378 467 0
386 385 465 0
386 -385 -465 0
-386 385 -465 0
-386 -385 465 0
388 387 446 0
388 -387 -446 0
-388 387 -446 0
-388 -387 446 0
391 390 410 0
391 -390 -410 0
-391 390 -410 0
-391 -390 410 0
392 390 417 0
392 -390 -417 0
-392 390 -417 0
-392 -390 417 0
393 390 472 0
393 -390 -472 0
-393 390 -472 0
-393 -390 472 0
395 394 480 0
395 -394 -480 0
-395 394 -480 0
-395 -394 480 0
397 396 456 0
397 -396 -456 0
-397 396 -456 0
-397 -396 456 0
399 398 421 0
399 -398 -421 0
-399 398 -421 0
-399 -398 421 0
400 398 479 0
400 -398 -479 0
-400 398 -479 0
-400 -398 479 0
402 401 413 0
402 -401 -413 0
-402 401 -413 0
-402 -401 413 0
403 401 433 0
403 -401 -433 0
-403 401 -433 0
-403 -401 433 0
404 401 469 0
404 -401 -469 0
-404 401 -469 0
-404 -401 469 0
407 406 432 0
407 -406 -432 0
-407 406 -432 0
-407 -406 432 0
409 408 468 0
409 -408 -468 0
-409 408 -468 0
-409 -408 468 0
412 411 447 0
412 -411 -447 0
-412 411 -447 0
-412 -411 447 0
414 413 452 0
414 -413 -452 0
-414 413 -452 0
-414 -413 452 0
418 417 447 0
418 -417 -447 0
-418 417 -447 0
-418 -417 447 0
428 427 473 0
428 -427 -473 0
-428 427 -473 0
-428 -427 473 0
430 429 444 0
430 -429 -444 0
-430 429 -444 0
-430 -429 444 0
431 429 477 0
431 -429 -477 0
-431 429 -477 0
-431 -429 477 0
434 433 446 0
434 -433 -446 0
-434 433 -446 0
-434 -433 446 0
435 433 474 0
435 -433 -474 0
-435 433 -474 0
-435 -433 474 0
436 433 485 0
436 -433 -485 0
-436 433 -485 0
-436 -433 485 0
438 437 470 0
438 -437 -470 0
-438 437 -470 0
-438 -437 470 0
440 439 447 0
440 -439 -447 0
-440 439 -447 0
-440 -439 447 0
442 441 456 0
442 -441 -456 0
-442 441 -456 0
-442 -441 456 0
443 441 486 0
443 -441 -486 0
-443 441 -486 0
-443 -441 486 0
445 444 467 0
445 -444 -467 0
-445 444 -467 0
-445 -444 467 0
448 447 482 0
448 -447 -482 0
-448 447 -482 0
-448 -447 482 0
451 450 463 0
451 -450 -463 0
-451 450 -463 0
-451 -450 463 0
455 454 480 0
455 -454 -480 0
-455 454 -480 0
-455 -454 480 0
460 459 466 0
460 -459 -466 0
-460 459 -466 0
-460 -459 466 0
471 470 478 0
471 -470 -478 0
-471 470 -478 0
-471 -470 478 0
475 474 479 0
475 -474 -479 0
-475 474 -479 0
-475 -474 479 0
483 482 488 0
483 -482 -488 0
-483 482 -488 0
-483 -482 488 0
